# Solution for model FSG
# Objective value = 1.7310265963483264e+03
x_0_1 0
x_0_2 1
x_0_3 1
x_0_4 1
x_0_5 0
x_0_6 0
x_0_7 0
x_0_8 0
x_1_2 0
x_1_3 0
x_1_4 0
x_1_5 0
x_1_6 1
x_1_7 0
x_1_8 0
x_2_1 0
x_2_3 0
x_2_4 0
x_2_5 0
x_2_6 0
x_2_7 1
x_2_8 0
x_3_1 0
x_3_2 0
x_3_4 0
x_3_5 1
x_3_6 0
x_3_7 0
x_3_8 0
x_4_1 1
x_4_2 0
x_4_3 0
x_4_5 0
x_4_6 0
x_4_7 0
x_4_8 0
x_5_1 0
x_5_2 0
x_5_3 0
x_5_4 0
x_5_6 0
x_5_7 0
x_5_8 1
U_1_1 0
U_1_2 0
U_1_3 1
U_2_1 0
U_2_2 0
U_2_3 1
U_3_1 0
U_3_2 0
U_3_3 1
U_4_1 0
U_4_2 0
U_4_3 1
U_5_1 0
U_5_2 0
U_5_3 1
U_6_1 0
U_6_2 0
U_6_3 1
U_7_1 0
U_7_2 0
U_7_3 1
U_8_1 0
U_8_2 0
U_8_3 1
TBar_0 0
TBar_1 2.5894141158811809e+01
TBar_2 20
TBar_3 20
TBar_4 20
TBar_5 2.2941088233970447e+01
TBar_6 30
TBar_7 30
TBar_8 30
y_0_1_1 0
y_0_2_1 0
y_0_3_1 0
y_0_4_1 0
y_0_5_1 0
y_0_6_1 0
y_0_7_1 0
y_0_8_1 0
y_1_2_1 0
y_1_3_1 0
y_1_4_1 0
y_1_5_1 0
y_1_6_1 1
y_1_7_1 0
y_1_8_1 0
y_2_1_1 0
y_2_3_1 0
y_2_4_1 0
y_2_5_1 0
y_2_6_1 0
y_2_7_1 0
y_2_8_1 0
y_3_1_1 0
y_3_2_1 0
y_3_4_1 0
y_3_5_1 0
y_3_6_1 0
y_3_7_1 0
y_3_8_1 0
y_4_1_1 1
y_4_2_1 0
y_4_3_1 0
y_4_5_1 0
y_4_6_1 0
y_4_7_1 0
y_4_8_1 0
y_5_1_1 0
y_5_2_1 0
y_5_3_1 0
y_5_4_1 0
y_5_6_1 0
y_5_7_1 0
y_5_8_1 0
Q_0_1 0
Q_1_1 1.8309600000004508e+02
Q_2_1 111.4
Q_3_1 99.5450000000219
Q_4_1 1.0851500000001218e+02
Q_5_1 1.7676499999997213e+02
Q_6_1 1.8309600000004895e+02
Q_7_1 111.4
Q_8_1 1.7676499999996739e+02
R_6_1 83.0960000000487
R_7_1 11.4
R_8_1 7.6764999999966790e+01
L_1_1 0
L_2_1 0
L_3_1 0
L_4_1 0
L_5_1 0
rho_1_1 1
rho_2_1 1
rho_3_1 0
rho_4_1 1
rho_5_1 1
lambd_1_1 0
lambd_2_1 0
lambd_3_1 0
lambd_4_1 0
lambd_5_1 0
alpha_1_1 0
alpha_2_1 0
alpha_3_1 0
alpha_4_1 1
alpha_5_1 0
